(benchmark random_random82_smt
:extrafuns ((x0 BitVec[24]))
:extrafuns ((x1 BitVec[24]))
:extrafuns ((x2 BitVec[24]))
:extrafuns ((x3 BitVec[24]))
:extrafuns ((x4 BitVec[24]))
:extrafuns ((x5 BitVec[24]))
:extrafuns ((x6 BitVec[24]))
:extrafuns ((x7 BitVec[24]))
:extrafuns ((x8 BitVec[24]))
:extrafuns ((x9 BitVec[24]))
:extrafuns ((x10 BitVec[24]))
:extrafuns ((x11 BitVec[24]))
:extrafuns ((x12 BitVec[24]))
:extrafuns ((x13 BitVec[24]))
:extrafuns ((x14 BitVec[24]))
:extrafuns ((x15 BitVec[24]))
:extrafuns ((x16 BitVec[24]))
:extrafuns ((x17 BitVec[24]))
:extrafuns ((x18 BitVec[24]))
:extrafuns ((x19 BitVec[24]))


:formula (and (not (= (bvadd (bvmul bv10975210[24] x0) 
                        (bvadd (bvmul bv10584139[24] x2) 
                        (bvadd (bvmul bv10015525[24] x3) 
                        (bvadd (bvmul bv14097525[24] x4) 
                        (bvadd (bvmul bv14549775[24] x5) 
                        (bvadd (bvmul bv10193734[24] x6) 
                        (bvadd (bvmul bv6434127[24] x8) 
                        (bvadd (bvmul bv5190872[24] x9) 
                        (bvadd (bvmul bv1575401[24] x11) 
                        (bvadd (bvmul bv14930447[24] x12) 
                        (bvadd (bvmul bv9530560[24] x15) 
                        (bvadd (bvmul bv14710825[24] x17) (bvmul bv8908821[24] x19)))))))))))))
	              bv10692972[24]))
         (and (not (= (bvadd (bvmul bv15038629[24] x3) 
                        (bvadd (bvmul bv12811189[24] x5) 
                        (bvadd (bvmul bv2121180[24] x6) 
                        (bvadd (bvmul bv2807679[24] x9) 
                        (bvadd (bvmul bv11259379[24] x10) 
                        (bvadd (bvmul bv11796593[24] x11) 
                        (bvadd (bvmul bv13272870[24] x13) 
                        (bvadd (bvmul bv13400598[24] x14) (bvmul bv3959826[24] x17)))))))))
	              bv12868648[24]))
         (and (not (= (bvadd (bvmul bv10651096[24] x0) 
                        (bvadd (bvmul bv3339677[24] x1) 
                        (bvadd (bvmul bv13845808[24] x2) 
                        (bvadd (bvmul bv1658765[24] x5) 
                        (bvadd (bvmul bv6689085[24] x7) 
                        (bvadd (bvmul bv131815[24] x8) 
                        (bvadd (bvmul bv11929655[24] x11) 
                        (bvadd (bvmul bv13108855[24] x12) 
                        (bvadd (bvmul bv9638261[24] x13) 
                        (bvadd (bvmul bv14451527[24] x14) 
                        (bvadd (bvmul bv2754341[24] x15) 
                        (bvadd (bvmul bv8121403[24] x17) (bvmul bv13325113[24] x18)))))))))))))
	              bv13309966[24]))
         (and (not (= (bvadd (bvmul bv11168725[24] x0) 
                        (bvadd (bvmul bv5832844[24] x1) 
                        (bvadd (bvmul bv3481126[24] x2) 
                        (bvadd (bvmul bv805262[24] x4) 
                        (bvadd (bvmul bv10491839[24] x5) 
                        (bvadd (bvmul bv16751378[24] x7) 
                        (bvadd (bvmul bv14499435[24] x9) 
                        (bvadd (bvmul bv1114295[24] x10) 
                        (bvadd (bvmul bv1715344[24] x13) 
                        (bvadd (bvmul bv422746[24] x14) 
                        (bvadd (bvmul bv13533959[24] x17) (bvmul bv13421535[24] x19))))))))))))
	              bv13418609[24]))
         (and (bvule      (bvadd (bvmul bv8540756[24] x2) 
                        (bvadd (bvmul bv7625472[24] x3) 
                        (bvadd (bvmul bv7372255[24] x4) 
                        (bvadd (bvmul bv4908799[24] x6) 
                        (bvadd (bvmul bv14374998[24] x8) 
                        (bvadd (bvmul bv6799113[24] x9) 
                        (bvadd (bvmul bv6396962[24] x10) 
                        (bvadd (bvmul bv14277901[24] x11) 
                        (bvadd (bvmul bv8321154[24] x14) (bvmul bv5077898[24] x16))))))))))
	              bv4234251[24])
         (and (bvule      (bvadd (bvmul bv4199383[24] x0) 
                        (bvadd (bvmul bv4353210[24] x1) 
                        (bvadd (bvmul bv3993515[24] x2) 
                        (bvadd (bvmul bv4763199[24] x3) 
                        (bvadd (bvmul bv6647874[24] x6) 
                        (bvadd (bvmul bv3780258[24] x12) 
                        (bvadd (bvmul bv1405979[24] x15) 
                        (bvadd (bvmul bv14211608[24] x16) (bvmul bv38249[24] x17)))))))))
	              bv1760467[24])
         (and (bvule      (bvadd (bvmul bv820224[24] x0) 
                        (bvadd (bvmul bv2095448[24] x5) 
                        (bvadd (bvmul bv9300558[24] x7) 
                        (bvadd (bvmul bv8278559[24] x10) 
                        (bvadd (bvmul bv928815[24] x11) 
                        (bvadd (bvmul bv5815792[24] x12) 
                        (bvadd (bvmul bv13577708[24] x15) (bvmul bv16626678[24] x18))))))))
	              bv16039351[24])
         (and (bvule      (bvadd (bvmul bv5677458[24] x2) 
                        (bvadd (bvmul bv14153182[24] x3) 
                        (bvadd (bvmul bv15301918[24] x4) 
                        (bvadd (bvmul bv6638697[24] x6) 
                        (bvadd (bvmul bv15573423[24] x10) 
                        (bvadd (bvmul bv3740294[24] x11) 
                        (bvadd (bvmul bv13409240[24] x12) 
                        (bvadd (bvmul bv4434097[24] x13) 
                        (bvadd (bvmul bv2011076[24] x14) 
                        (bvadd (bvmul bv6203630[24] x16) 
                        (bvadd (bvmul bv16596185[24] x17) (bvmul bv11508828[24] x18))))))))))))
	              bv16425705[24])
         (and (bvule      (bvadd (bvmul bv11599613[24] x1) 
                        (bvadd (bvmul bv7630247[24] x4) 
                        (bvadd (bvmul bv12808734[24] x6) 
                        (bvadd (bvmul bv4587384[24] x12) 
                        (bvadd (bvmul bv1011896[24] x15) 
                        (bvadd (bvmul bv981404[24] x17) (bvmul bv5725548[24] x18)))))))
	              bv4428432[24])
         (and (bvule      (bvadd (bvmul bv15676536[24] x4) 
                        (bvadd (bvmul bv11973879[24] x7) 
                        (bvadd (bvmul bv8005399[24] x9) 
                        (bvadd (bvmul bv16642712[24] x10) 
                        (bvadd (bvmul bv15005348[24] x11) 
                        (bvadd (bvmul bv9599665[24] x15) 
                        (bvadd (bvmul bv11073610[24] x16) 
                        (bvadd (bvmul bv5315856[24] x17) 
                        (bvadd (bvmul bv8161246[24] x18) (bvmul bv12855389[24] x19))))))))))
	              bv12589679[24])
         (and (bvule      (bvadd (bvmul bv1554753[24] x0) 
                        (bvadd (bvmul bv15210980[24] x1) 
                        (bvadd (bvmul bv2777397[24] x3) 
                        (bvadd (bvmul bv8164982[24] x6) 
                        (bvadd (bvmul bv3244984[24] x10) 
                        (bvadd (bvmul bv6557658[24] x11) 
                        (bvadd (bvmul bv2574406[24] x12) 
                        (bvadd (bvmul bv3110593[24] x13) 
                        (bvadd (bvmul bv10915767[24] x14) (bvmul bv13991453[24] x18))))))))))
	              bv4474338[24])
         (and (bvule      (bvadd (bvmul bv3826495[24] x0) 
                        (bvadd (bvmul bv8522422[24] x5) 
                        (bvadd (bvmul bv7898029[24] x6) 
                        (bvadd (bvmul bv11009345[24] x7) 
                        (bvadd (bvmul bv1440944[24] x8) 
                        (bvadd (bvmul bv345259[24] x9) 
                        (bvadd (bvmul bv3774240[24] x12) 
                        (bvadd (bvmul bv1408431[24] x14) (bvmul bv14244624[24] x15)))))))))
	              bv3145874[24])
         (and (bvule      (bvadd (bvmul bv10285524[24] x0) 
                        (bvadd (bvmul bv654879[24] x2) 
                        (bvadd (bvmul bv1342564[24] x3) 
                        (bvadd (bvmul bv3151851[24] x4) 
                        (bvadd (bvmul bv1699662[24] x5) 
                        (bvadd (bvmul bv4502986[24] x8) 
                        (bvadd (bvmul bv5702820[24] x10) 
                        (bvadd (bvmul bv9477060[24] x12) 
                        (bvadd (bvmul bv13381312[24] x15) 
                        (bvadd (bvmul bv14255444[24] x17) (bvmul bv39476[24] x18)))))))))))
	              bv4168483[24])
         (and (bvule      (bvadd (bvmul bv7596473[24] x0) 
                        (bvadd (bvmul bv2225902[24] x2) 
                        (bvadd (bvmul bv6481175[24] x6) 
                        (bvadd (bvmul bv5770779[24] x7) 
                        (bvadd (bvmul bv6452447[24] x9) 
                        (bvadd (bvmul bv11345448[24] x13) (bvmul bv4173080[24] x14)))))))
	              bv1950735[24])
         (and (bvule      (bvadd (bvmul bv12060409[24] x3) 
                        (bvadd (bvmul bv8487624[24] x4) 
                        (bvadd (bvmul bv12179013[24] x5) 
                        (bvadd (bvmul bv2886851[24] x6) 
                        (bvadd (bvmul bv2973098[24] x7) 
                        (bvadd (bvmul bv403884[24] x8) 
                        (bvadd (bvmul bv9360602[24] x12) 
                        (bvadd (bvmul bv10108219[24] x13) 
                        (bvadd (bvmul bv9382561[24] x16) 
                        (bvadd (bvmul bv5889958[24] x17) (bvmul bv1094810[24] x18)))))))))))
	              bv485789[24])
         (and (bvule      (bvadd (bvmul bv14770748[24] x1) 
                        (bvadd (bvmul bv1062330[24] x5) 
                        (bvadd (bvmul bv5946179[24] x8) 
                        (bvadd (bvmul bv12876534[24] x9) 
                        (bvadd (bvmul bv3279536[24] x10) 
                        (bvadd (bvmul bv12640139[24] x12) 
                        (bvadd (bvmul bv8539329[24] x15) (bvmul bv5794308[24] x17))))))))
	              bv6889118[24])
         (and (bvule      (bvadd (bvmul bv6185942[24] x0) 
                        (bvadd (bvmul bv11852137[24] x1) 
                        (bvadd (bvmul bv735453[24] x3) 
                        (bvadd (bvmul bv11640842[24] x4) 
                        (bvadd (bvmul bv12878731[24] x6) 
                        (bvadd (bvmul bv2802679[24] x7) 
                        (bvadd (bvmul bv10369752[24] x8) 
                        (bvadd (bvmul bv13325403[24] x10) 
                        (bvadd (bvmul bv7808514[24] x11) 
                        (bvadd (bvmul bv13764256[24] x12) 
                        (bvadd (bvmul bv16774598[24] x15) (bvmul bv4754576[24] x16))))))))))))
	              bv11883478[24])
         (and (bvule      (bvadd (bvmul bv14498938[24] x0) 
                        (bvadd (bvmul bv10822923[24] x1) 
                        (bvadd (bvmul bv9946374[24] x2) 
                        (bvadd (bvmul bv9605554[24] x7) 
                        (bvadd (bvmul bv8117933[24] x8) 
                        (bvadd (bvmul bv5622495[24] x9) 
                        (bvadd (bvmul bv2083048[24] x12) 
                        (bvadd (bvmul bv4251454[24] x16) (bvmul bv4875122[24] x19)))))))))
	              bv5697997[24])
         (and (bvule      (bvadd (bvmul bv1876898[24] x4) 
                        (bvadd (bvmul bv2140499[24] x5) 
                        (bvadd (bvmul bv13918583[24] x9) 
                        (bvadd (bvmul bv7997972[24] x10) 
                        (bvadd (bvmul bv10356528[24] x13) 
                        (bvadd (bvmul bv14747143[24] x14) 
                        (bvadd (bvmul bv4135834[24] x15) 
                        (bvadd (bvmul bv8387289[24] x17) (bvmul bv12075136[24] x18)))))))))
	              bv13897011[24])
         (and (bvule      (bvadd (bvmul bv4415640[24] x2) 
                        (bvadd (bvmul bv12759200[24] x3) 
                        (bvadd (bvmul bv14899699[24] x5) 
                        (bvadd (bvmul bv12778498[24] x6) 
                        (bvadd (bvmul bv16433738[24] x9) 
                        (bvadd (bvmul bv115430[24] x10) 
                        (bvadd (bvmul bv10471958[24] x12) 
                        (bvadd (bvmul bv4422063[24] x14) 
                        (bvadd (bvmul bv13446002[24] x16) 
                        (bvadd (bvmul bv8413128[24] x17) (bvmul bv71227[24] x18)))))))))))
	              bv9739844[24])
         (and (bvule      (bvadd (bvmul bv863647[24] x2) 
                        (bvadd (bvmul bv15942646[24] x5) 
                        (bvadd (bvmul bv5330400[24] x6) 
                        (bvadd (bvmul bv873005[24] x9) 
                        (bvadd (bvmul bv3757496[24] x11) 
                        (bvadd (bvmul bv9060442[24] x12) 
                        (bvadd (bvmul bv13482505[24] x14) 
                        (bvadd (bvmul bv8110164[24] x15) 
                        (bvadd (bvmul bv11937999[24] x16) 
                        (bvadd (bvmul bv2118003[24] x17) 
                        (bvadd (bvmul bv5279002[24] x18) (bvmul bv1917559[24] x19))))))))))))
	              bv10339964[24])
         (and (bvule      (bvadd (bvmul bv2781206[24] x0) 
                        (bvadd (bvmul bv12906926[24] x1) 
                        (bvadd (bvmul bv10548343[24] x2) 
                        (bvadd (bvmul bv11847350[24] x5) 
                        (bvadd (bvmul bv12637831[24] x6) 
                        (bvadd (bvmul bv14502261[24] x7) 
                        (bvadd (bvmul bv13554683[24] x8) 
                        (bvadd (bvmul bv13642073[24] x14) 
                        (bvadd (bvmul bv13352636[24] x15) 
                        (bvadd (bvmul bv9960496[24] x16) 
                        (bvadd (bvmul bv11878055[24] x18) (bvmul bv3299612[24] x19))))))))))))
	              bv14659262[24])
         (and (bvule      (bvadd (bvmul bv9992371[24] x1) 
                        (bvadd (bvmul bv12336039[24] x4) 
                        (bvadd (bvmul bv8196656[24] x6) 
                        (bvadd (bvmul bv14302979[24] x10) 
                        (bvadd (bvmul bv3216005[24] x11) 
                        (bvadd (bvmul bv45349[24] x13) 
                        (bvadd (bvmul bv14698386[24] x14) 
                        (bvadd (bvmul bv13641479[24] x15) 
                        (bvadd (bvmul bv7704974[24] x17) (bvmul bv11004586[24] x19))))))))))
	              bv864555[24])
         (and (bvule      (bvadd (bvmul bv10856927[24] x1) 
                        (bvadd (bvmul bv4035317[24] x5) 
                        (bvadd (bvmul bv5019150[24] x6) 
                        (bvadd (bvmul bv2697071[24] x9) 
                        (bvadd (bvmul bv5913077[24] x11) 
                        (bvadd (bvmul bv5958426[24] x13) (bvmul bv15786077[24] x17)))))))
	              bv1991370[24])
         (and (bvule      (bvadd (bvmul bv488633[24] x0) 
                        (bvadd (bvmul bv10922544[24] x2) 
                        (bvadd (bvmul bv13680103[24] x3) 
                        (bvadd (bvmul bv1671232[24] x4) 
                        (bvadd (bvmul bv16268799[24] x5) 
                        (bvadd (bvmul bv15521747[24] x6) 
                        (bvadd (bvmul bv7166116[24] x9) 
                        (bvadd (bvmul bv11295065[24] x12) 
                        (bvadd (bvmul bv2260405[24] x13) 
                        (bvadd (bvmul bv5925003[24] x14) (bvmul bv4933865[24] x16)))))))))))
	              bv840761[24])
         (and (bvule      (bvadd (bvmul bv13257195[24] x1) 
                        (bvadd (bvmul bv6716800[24] x2) 
                        (bvadd (bvmul bv7894869[24] x3) 
                        (bvadd (bvmul bv12500455[24] x9) 
                        (bvadd (bvmul bv2244399[24] x10) 
                        (bvadd (bvmul bv14502749[24] x13) 
                        (bvadd (bvmul bv6191403[24] x16) (bvmul bv11540386[24] x19))))))))
	              bv6506208[24])
         (and (bvule      (bvadd (bvmul bv8022266[24] x1) 
                        (bvadd (bvmul bv8861127[24] x2) 
                        (bvadd (bvmul bv9382070[24] x6) 
                        (bvadd (bvmul bv14043258[24] x10) 
                        (bvadd (bvmul bv6190694[24] x11) 
                        (bvadd (bvmul bv16123082[24] x12) 
                        (bvadd (bvmul bv14834037[24] x13) 
                        (bvadd (bvmul bv8702900[24] x14) 
                        (bvadd (bvmul bv7784024[24] x15) 
                        (bvadd (bvmul bv4509995[24] x16) 
                        (bvadd (bvmul bv9242357[24] x17) 
                        (bvadd (bvmul bv2991802[24] x18) (bvmul bv11654313[24] x19)))))))))))))
	              bv11014069[24])
         (and (bvule      (bvadd (bvmul bv5786921[24] x2) 
                        (bvadd (bvmul bv15168991[24] x4) 
                        (bvadd (bvmul bv11686789[24] x5) 
                        (bvadd (bvmul bv4093927[24] x6) 
                        (bvadd (bvmul bv11722118[24] x7) 
                        (bvadd (bvmul bv8463277[24] x8) 
                        (bvadd (bvmul bv1943907[24] x9) 
                        (bvadd (bvmul bv5383706[24] x12) 
                        (bvadd (bvmul bv8763897[24] x13) 
                        (bvadd (bvmul bv12409007[24] x14) 
                        (bvadd (bvmul bv15400810[24] x16) 
                        (bvadd (bvmul bv4043967[24] x17) (bvmul bv16537570[24] x18)))))))))))))
	              bv7558171[24])
         (and (bvule      (bvadd (bvmul bv279985[24] x1) 
                        (bvadd (bvmul bv11966775[24] x3) 
                        (bvadd (bvmul bv4142394[24] x5) 
                        (bvadd (bvmul bv6700217[24] x6) 
                        (bvadd (bvmul bv8758662[24] x7) 
                        (bvadd (bvmul bv2348556[24] x8) 
                        (bvadd (bvmul bv11277615[24] x12) 
                        (bvadd (bvmul bv12506655[24] x14) 
                        (bvadd (bvmul bv10299636[24] x15) (bvmul bv3160085[24] x17))))))))))
	              bv10718257[24])
         (and (bvule      (bvadd (bvmul bv2051762[24] x0) 
                        (bvadd (bvmul bv16720813[24] x1) 
                        (bvadd (bvmul bv6187803[24] x2) 
                        (bvadd (bvmul bv380048[24] x5) 
                        (bvadd (bvmul bv6158654[24] x6) 
                        (bvadd (bvmul bv6133367[24] x7) 
                        (bvadd (bvmul bv9259547[24] x8) 
                        (bvadd (bvmul bv16239473[24] x9) 
                        (bvadd (bvmul bv3147487[24] x10) 
                        (bvadd (bvmul bv10326627[24] x13) 
                        (bvadd (bvmul bv6351056[24] x14) 
                        (bvadd (bvmul bv12673561[24] x17) 
                        (bvadd (bvmul bv9590085[24] x18) (bvmul bv5047197[24] x19))))))))))))))
	              bv9533684[24])
         (and (bvule      (bvadd (bvmul bv11235001[24] x0) 
                        (bvadd (bvmul bv16664994[24] x1) 
                        (bvadd (bvmul bv14154237[24] x3) 
                        (bvadd (bvmul bv4964601[24] x4) 
                        (bvadd (bvmul bv12157476[24] x7) 
                        (bvadd (bvmul bv2449902[24] x10) 
                        (bvadd (bvmul bv14181892[24] x11) 
                        (bvadd (bvmul bv6346747[24] x12) 
                        (bvadd (bvmul bv503615[24] x17) (bvmul bv14229983[24] x18))))))))))
	              bv2910613[24])
         (and (bvule      (bvadd (bvmul bv6439303[24] x2) 
                        (bvadd (bvmul bv3816326[24] x4) 
                        (bvadd (bvmul bv15924161[24] x5) 
                        (bvadd (bvmul bv2706978[24] x8) (bvmul bv15416620[24] x13)))))
	              bv5343722[24])
         (and (bvule      (bvadd (bvmul bv13113342[24] x0) 
                        (bvadd (bvmul bv16023955[24] x2) 
                        (bvadd (bvmul bv14053536[24] x3) 
                        (bvadd (bvmul bv15787318[24] x4) 
                        (bvadd (bvmul bv2826429[24] x6) 
                        (bvadd (bvmul bv2681551[24] x9) 
                        (bvadd (bvmul bv6463085[24] x11) 
                        (bvadd (bvmul bv12694520[24] x13) 
                        (bvadd (bvmul bv14925271[24] x15) 
                        (bvadd (bvmul bv3987119[24] x17) 
                        (bvadd (bvmul bv1311381[24] x18) (bvmul bv3303344[24] x19))))))))))))
	              bv14424723[24])
         (and (bvule      (bvadd (bvmul bv571066[24] x0) 
                        (bvadd (bvmul bv4698133[24] x1) 
                        (bvadd (bvmul bv11274659[24] x2) 
                        (bvadd (bvmul bv3060200[24] x4) 
                        (bvadd (bvmul bv16687812[24] x7) 
                        (bvadd (bvmul bv12770722[24] x9) 
                        (bvadd (bvmul bv5167249[24] x10) 
                        (bvadd (bvmul bv6021146[24] x11) (bvmul bv4397586[24] x15)))))))))
	              bv8935820[24])
         (and (bvule      (bvadd (bvmul bv9506887[24] x1) 
                        (bvadd (bvmul bv4466436[24] x5) 
                        (bvadd (bvmul bv11001102[24] x7) 
                        (bvadd (bvmul bv10911699[24] x9) 
                        (bvadd (bvmul bv6874543[24] x10) 
                        (bvadd (bvmul bv216351[24] x13) 
                        (bvadd (bvmul bv2491905[24] x14) 
                        (bvadd (bvmul bv13315160[24] x16) 
                        (bvadd (bvmul bv6770608[24] x17) (bvmul bv7480556[24] x19))))))))))
	              bv11106242[24])
         (and (bvule      (bvadd (bvmul bv14723681[24] x5) 
                        (bvadd (bvmul bv1687543[24] x6) 
                        (bvadd (bvmul bv2989148[24] x7) 
                        (bvadd (bvmul bv4333110[24] x8) 
                        (bvadd (bvmul bv5018626[24] x9) 
                        (bvadd (bvmul bv4028839[24] x10) 
                        (bvadd (bvmul bv6472232[24] x11) 
                        (bvadd (bvmul bv10506946[24] x14) (bvmul bv7672506[24] x18)))))))))
	              bv753098[24])
         (and (bvule      (bvadd (bvmul bv8592546[24] x4) 
                        (bvadd (bvmul bv8160449[24] x11) 
                        (bvadd (bvmul bv9063121[24] x16) (bvmul bv14985335[24] x17))))
	              bv1487268[24])
         (and (bvule      (bvadd (bvmul bv14424635[24] x2) 
                        (bvadd (bvmul bv12290123[24] x3) 
                        (bvadd (bvmul bv1216901[24] x4) 
                        (bvadd (bvmul bv5486403[24] x5) 
                        (bvadd (bvmul bv8399177[24] x6) 
                        (bvadd (bvmul bv7674795[24] x9) 
                        (bvadd (bvmul bv2756862[24] x11) 
                        (bvadd (bvmul bv13242884[24] x12) 
                        (bvadd (bvmul bv9502806[24] x16) 
                        (bvadd (bvmul bv11386149[24] x17) 
                        (bvadd (bvmul bv12852425[24] x18) (bvmul bv727765[24] x19))))))))))))
	              bv3161421[24])
         (and (bvule      (bvadd (bvmul bv14227799[24] x1) 
                        (bvadd (bvmul bv15444700[24] x3) 
                        (bvadd (bvmul bv11351943[24] x6) 
                        (bvadd (bvmul bv12648645[24] x7) 
                        (bvadd (bvmul bv2901813[24] x11) 
                        (bvadd (bvmul bv5759370[24] x13) 
                        (bvadd (bvmul bv2160185[24] x15) 
                        (bvadd (bvmul bv7135635[24] x16) 
                        (bvadd (bvmul bv4103915[24] x17) (bvmul bv4831681[24] x19))))))))))
	              bv6372267[24])
              (bvule      (bvadd (bvmul bv1172182[24] x8) 
                        (bvadd (bvmul bv8372190[24] x9) 
                        (bvadd (bvmul bv10709182[24] x11) 
                        (bvadd (bvmul bv16623153[24] x14) (bvmul bv13603500[24] x16)))))
	              bv4947151[24])
	 )))))))))))))))))))))))))))))))))))))))

)
